\ SCIP STATISTICS
\   Problem name     : CapacitatedFacilityLocation-20-10
\   Variables        : 210 (210 binary, 0 integer, 0 implicit integer, 0 continuous)
\   Constraints      : 231
Minimize
 Obj: +719.59229831768 x0 +806.732615703429 x1 +820.182781268158 x2 +1215.13290393947 x3 +566.442304749123 x4
      +836.251868042296 x5 +1108.99213688167 x6 +1396.39010214352 x7 +1074.44028457723 x8 +770.820323027551 x9
      +180.636482448721 x10 +115.597506126844 x11 +101.342630018135 x12 +209.564641464646 x13 +88.0249814675238 x14
      +81.7951722279005 x15 +86.5778831542255 x16 +136.544955703879 x17 +130.2157560234 x18 +121.087201029707 x19
      +171.647334842401 x20 +146.38282593166 x21 +148.655389587289 x22 +223.107526797227 x23 +49.3922647733167 x24
      +101.733266034581 x25 +76.3339107564986 x26 +123.839141933201 x27 +157.840852716831 x28 +92.7093477100359 x29
      +180.165391179806 x30 +213.516808860697 x31 +205.112835567545 x32 +292.556064142794 x33 +132.989941058882 x34
      +168.610653048925 x35 +155.318839531242 x36 +112.608915112322 x37 +227.907509434135 x38 +109.17875513418 x39
      +51.419032178752 x40 +19.7282680132105 x41 +21.9026563649378 x42 +44.4793538884943 x43 +9.85174394462542 x44
      +10.1072498475219 x45 +3.41373898380793 x46 +43.6288916327369 x47 +22.3800790755361 x48 +34.9322540779817 x49
      +105.641733082055 x50 +79.5261924977447 x51 +70.39530855251 x52 +129.791000644368 x53 +65.1854877028067 x54
      +62.4109362671763 x55 +65.5546575102266 x56 +79.688857893789 x57 +87.5515137218913 x58 +74.7836224987127 x59
      +172.879987594145 x60 +169.410874231529 x61 +157.449515930756 x62 +247.239365440103 x63 +121.05327755727 x64
      +134.55015841575 x65 +131.490196523835 x66 +120.457368397025 x67 +182.79111856541 x68 +116.703725201146 x69
      +119.866121801886 x70 +12.5441451754922 x71 +10.7796612952692 x72 +76.9881019166572 x73 +55.1470787298845 x74
      +25.8469375685899 x75 +38.849212510785 x76 +109.434004145648 x77 +18.0740222091688 x78 +95.6475111385755 x79
      +91.7069967784705 x80 +198.382307926047 x81 +205.114200561794 x82 +223.250854244656 x83 +95.7069900914107 x84
      +161.883291094381 x85 +132.308714916421 x86 +37.8154369894969 x87 +204.800438688912 x88 +20.3454486642772 x89
      +60.8356337434475 x90 +111.632984972814 x91 +127.164982907451 x92 +74.0034988507759 x93 +63.7171695006509 x94
      +103.31783303896 x95 +80.7190759379399 x96 +77.8616298369525 x97 +107.672159458902 x98 +62.1156000155647 x99
      +87.9994474521457 x100 +150.925059620001 x101 +156.655080696455 x102 +177.923740598413 x103 +64.4431689931203 x104
      +120.018569003827 x105 +95.0604454210814 x106 +48.4649836891098 x107 +156.588701767495 x108 +25.7563484669773 x109
      +88.7807662748396 x110 +186.204767737678 x111 +204.647856798895 x112 +175.040132236154 x113 +79.1443609638019 x114
      +158.269204475756 x115 +118.981627985696 x116 +85.606683419987 x117 +186.346392769902 x118 +52.0863684276604 x119
      +25.0436509902463 x120 +44.4173442652526 x121 +45.3522808515036 x122 +53.0195557365436 x123 +21.3895701609879 x124
      +35.5492365359272 x125 +29.3335322809171 x126 +11.7983498635039 x127 +46.2670922614124 x128 +8.47101015682268 x129
      +60.7070129234775 x130 +232.97967060589 x131 +243.561356421148 x132 +235.111649643405 x133 +124.746899595483 x134
      +198.134302014522 x135 +164.468012888993 x136 +15.9990566115064 x137 +237.160302190678 x138 +24.7889550189343 x139
      +63.2545296188495 x140 +195.071978750598 x141 +216.052139520115 x142 +147.356584259368 x143 +108.292249885675 x144
      +176.306292140995 x145 +140.472891166503 x146 +95.1771340689007 x147 +191.371358062124 x148 +75.9595259526846 x149
      +96.516201039849 x150 +154.700885286085 x151 +175.932732709761 x152 +126.364539532603 x153 +71.1174863144719 x154
      +136.725442975326 x155 +100.918917703827 x156 +105.87884367619 x157 +151.405668812555 x158 +76.6714306472455 x159
      +145.318238460189 x160 +145.083236688831 x161 +171.998650294888 x162 +36.6171945598559 x163 +120.803624311109 x164
      +150.739563446169 x165 +127.548446675001 x166 +170.561574815921 x167 +132.889616751033 x168 +148.150538230686 x169
      +175.006539411412 x170 +92.4924875056055 x171 +117.335396134761 x172 +122.681974102926 x173 +41.2899890629927 x174
      +78.6458248201969 x175 +43.2117917811868 x176 +164.171846982221 x177 +89.7712337553486 x178 +128.408252490855 x179
      +46.9219951230355 x180 +117.156967855162 x181 +131.194819908705 x182 +79.4509877258281 x183 +69.40440531692 x184
      +108.280883960479 x185 +86.8897230544619 x186 +68.7871534605796 x187 +113.744853992307 x188 +56.9437806817522 x189
      +140.357940871474 x190 +95.8859244278836 x191 +115.29713660646 x192 +117.538612083263 x193 +27.1839093137019 x194
      +78.1748965595404 x195 +44.1387085999242 x196 +129.669762127929 x197 +95.0744443097267 x198 +97.8819771258451 x199
      +92.5234112739706 x200 +87.0319008391646 x201 +80.3862762960685 x202 +129.209050333496 x203 +63.1131385438531 x204
      +68.8524453027295 x205 +67.8773912914479 x206 +65.2796711737771 x207 +94.1928103746744 x208 +62.7711173920512 x209
Subject to
 c0: +1 x10 +1 x11 +1 x12 +1 x13 +1 x14 +1 x15 +1 x16 +1 x17 +1 x18 +1 x19 >= +1
 c1: +1 x20 +1 x21 +1 x22 +1 x23 +1 x24 +1 x25 +1 x26 +1 x27 +1 x28 +1 x29 >= +1
 c2: +1 x30 +1 x31 +1 x32 +1 x33 +1 x34 +1 x35 +1 x36 +1 x37 +1 x38 +1 x39 >= +1
 c3: +1 x40 +1 x41 +1 x42 +1 x43 +1 x44 +1 x45 +1 x46 +1 x47 +1 x48 +1 x49 >= +1
 c4: +1 x50 +1 x51 +1 x52 +1 x53 +1 x54 +1 x55 +1 x56 +1 x57 +1 x58 +1 x59 >= +1
 c5: +1 x60 +1 x61 +1 x62 +1 x63 +1 x64 +1 x65 +1 x66 +1 x67 +1 x68 +1 x69 >= +1
 c6: +1 x70 +1 x71 +1 x72 +1 x73 +1 x74 +1 x75 +1 x76 +1 x77 +1 x78 +1 x79 >= +1
 c7: +1 x80 +1 x81 +1 x82 +1 x83 +1 x84 +1 x85 +1 x86 +1 x87 +1 x88 +1 x89 >= +1
 c8: +1 x90 +1 x91 +1 x92 +1 x93 +1 x94 +1 x95 +1 x96 +1 x97 +1 x98 +1 x99 >= +1
 c9: +1 x100 +1 x101 +1 x102 +1 x103 +1 x104 +1 x105 +1 x106 +1 x107 +1 x108 +1 x109 >= +1
 c10: +1 x110 +1 x111 +1 x112 +1 x113 +1 x114 +1 x115 +1 x116 +1 x117 +1 x118 +1 x119 >= +1
 c11: +1 x120 +1 x121 +1 x122 +1 x123 +1 x124 +1 x125 +1 x126 +1 x127 +1 x128 +1 x129 >= +1
 c12: +1 x130 +1 x131 +1 x132 +1 x133 +1 x134 +1 x135 +1 x136 +1 x137 +1 x138 +1 x139 >= +1
 c13: +1 x140 +1 x141 +1 x142 +1 x143 +1 x144 +1 x145 +1 x146 +1 x147 +1 x148 +1 x149 >= +1
 c14: +1 x150 +1 x151 +1 x152 +1 x153 +1 x154 +1 x155 +1 x156 +1 x157 +1 x158 +1 x159 >= +1
 c15: +1 x160 +1 x161 +1 x162 +1 x163 +1 x164 +1 x165 +1 x166 +1 x167 +1 x168 +1 x169 >= +1
 c16: +1 x170 +1 x171 +1 x172 +1 x173 +1 x174 +1 x175 +1 x176 +1 x177 +1 x178 +1 x179 >= +1
 c17: +1 x180 +1 x181 +1 x182 +1 x183 +1 x184 +1 x185 +1 x186 +1 x187 +1 x188 +1 x189 >= +1
 c18: +1 x190 +1 x191 +1 x192 +1 x193 +1 x194 +1 x195 +1 x196 +1 x197 +1 x198 +1 x199 >= +1
 c19: +1 x200 +1 x201 +1 x202 +1 x203 +1 x204 +1 x205 +1 x206 +1 x207 +1 x208 +1 x209 >= +1
 c20: +21 x10 +29 x20 +27 x30 +7 x40 +11 x50 +21 x60 +11 x70 +26 x80 +16 x90 +22 x100 +28 x110 +6 x120
  +27 x130 +25 x140 +25 x150 +21 x160 +27 x170 +15 x180 +24 x190 +11 x200 -97 x0 <= +0
 c21: +21 x11 +29 x21 +27 x31 +7 x41 +11 x51 +21 x61 +11 x71 +26 x81 +16 x91 +22 x101 +28 x111 +6 x121
  +27 x131 +25 x141 +25 x151 +21 x161 +27 x171 +15 x181 +24 x191 +11 x201 -145 x1 <= +0
 c22: +21 x12 +29 x22 +27 x32 +7 x42 +11 x52 +21 x62 +11 x72 +26 x82 +16 x92 +22 x102 +28 x112 +6 x122
  +27 x132 +25 x142 +25 x152 +21 x162 +27 x172 +15 x182 +24 x192 +11 x202 -145 x2 <= +0
 c23: +21 x13 +29 x23 +27 x33 +7 x43 +11 x53 +21 x63 +11 x73 +26 x83 +16 x93 +22 x103 +28 x113 +6 x123
  +27 x133 +25 x143 +25 x153 +21 x163 +27 x173 +15 x183 +24 x193 +11 x203 -343 x3 <= +0
 c24: +21 x14 +29 x24 +27 x34 +7 x44 +11 x54 +21 x64 +11 x74 +26 x84 +16 x94 +22 x104 +28 x114 +6 x124
  +27 x134 +25 x144 +25 x154 +21 x164 +27 x174 +15 x184 +24 x194 +11 x204 -74 x4 <= +0
 c25: +21 x15 +29 x25 +27 x35 +7 x45 +11 x55 +21 x65 +11 x75 +26 x85 +16 x95 +22 x105 +28 x115 +6 x125
  +27 x135 +25 x145 +25 x155 +21 x165 +27 x175 +15 x185 +24 x195 +11 x205 -135 x5 <= +0
 c26: +21 x16 +29 x26 +27 x36 +7 x46 +11 x56 +21 x66 +11 x76 +26 x86 +16 x96 +22 x106 +28 x116 +6 x126
  +27 x136 +25 x146 +25 x156 +21 x166 +27 x176 +15 x186 +24 x196 +11 x206 -264 x6 <= +0
 c27: +21 x17 +29 x27 +27 x37 +7 x47 +11 x57 +21 x67 +11 x77 +26 x87 +16 x97 +22 x107 +28 x117 +6 x127
  +27 x137 +25 x147 +25 x157 +21 x167 +27 x177 +15 x187 +24 x197 +11 x207 -404 x7 <= +0
 c28: +21 x18 +29 x28 +27 x38 +7 x48 +11 x58 +21 x68 +11 x78 +26 x88 +16 x98 +22 x108 +28 x118 +6 x128
  +27 x138 +25 x148 +25 x158 +21 x168 +27 x178 +15 x188 +24 x198 +11 x208 -272 x8 <= +0
 c29: +21 x19 +29 x29 +27 x39 +7 x49 +11 x59 +21 x69 +11 x79 +26 x89 +16 x99 +22 x109 +28 x119 +6 x129
  +27 x139 +25 x149 +25 x159 +21 x169 +27 x179 +15 x189 +24 x199 +11 x209 -122 x9 <= +0
 c30: +97 x0 +145 x1 +145 x2 +343 x3 +74 x4 +135 x5 +264 x6 +404 x7 +272 x8 +122 x9 >= +400
 c31: +1 x10 -1 x0 <= +0
 c32: +1 x11 -1 x1 <= +0
 c33: +1 x12 -1 x2 <= +0
 c34: +1 x13 -1 x3 <= +0
 c35: +1 x14 -1 x4 <= +0
 c36: +1 x15 -1 x5 <= +0
 c37: +1 x16 -1 x6 <= +0
 c38: +1 x17 -1 x7 <= +0
 c39: +1 x18 -1 x8 <= +0
 c40: +1 x19 -1 x9 <= +0
 c41: +1 x20 -1 x0 <= +0
 c42: +1 x21 -1 x1 <= +0
 c43: +1 x22 -1 x2 <= +0
 c44: +1 x23 -1 x3 <= +0
 c45: +1 x24 -1 x4 <= +0
 c46: +1 x25 -1 x5 <= +0
 c47: +1 x26 -1 x6 <= +0
 c48: +1 x27 -1 x7 <= +0
 c49: +1 x28 -1 x8 <= +0
 c50: +1 x29 -1 x9 <= +0
 c51: +1 x30 -1 x0 <= +0
 c52: +1 x31 -1 x1 <= +0
 c53: +1 x32 -1 x2 <= +0
 c54: +1 x33 -1 x3 <= +0
 c55: +1 x34 -1 x4 <= +0
 c56: +1 x35 -1 x5 <= +0
 c57: +1 x36 -1 x6 <= +0
 c58: +1 x37 -1 x7 <= +0
 c59: +1 x38 -1 x8 <= +0
 c60: +1 x39 -1 x9 <= +0
 c61: +1 x40 -1 x0 <= +0
 c62: +1 x41 -1 x1 <= +0
 c63: +1 x42 -1 x2 <= +0
 c64: +1 x43 -1 x3 <= +0
 c65: +1 x44 -1 x4 <= +0
 c66: +1 x45 -1 x5 <= +0
 c67: +1 x46 -1 x6 <= +0
 c68: +1 x47 -1 x7 <= +0
 c69: +1 x48 -1 x8 <= +0
 c70: +1 x49 -1 x9 <= +0
 c71: +1 x50 -1 x0 <= +0
 c72: +1 x51 -1 x1 <= +0
 c73: +1 x52 -1 x2 <= +0
 c74: +1 x53 -1 x3 <= +0
 c75: +1 x54 -1 x4 <= +0
 c76: +1 x55 -1 x5 <= +0
 c77: +1 x56 -1 x6 <= +0
 c78: +1 x57 -1 x7 <= +0
 c79: +1 x58 -1 x8 <= +0
 c80: +1 x59 -1 x9 <= +0
 c81: +1 x60 -1 x0 <= +0
 c82: +1 x61 -1 x1 <= +0
 c83: +1 x62 -1 x2 <= +0
 c84: +1 x63 -1 x3 <= +0
 c85: +1 x64 -1 x4 <= +0
 c86: +1 x65 -1 x5 <= +0
 c87: +1 x66 -1 x6 <= +0
 c88: +1 x67 -1 x7 <= +0
 c89: +1 x68 -1 x8 <= +0
 c90: +1 x69 -1 x9 <= +0
 c91: +1 x70 -1 x0 <= +0
 c92: +1 x71 -1 x1 <= +0
 c93: +1 x72 -1 x2 <= +0
 c94: +1 x73 -1 x3 <= +0
 c95: +1 x74 -1 x4 <= +0
 c96: +1 x75 -1 x5 <= +0
 c97: +1 x76 -1 x6 <= +0
 c98: +1 x77 -1 x7 <= +0
 c99: +1 x78 -1 x8 <= +0
 c100: +1 x79 -1 x9 <= +0
 c101: +1 x80 -1 x0 <= +0
 c102: +1 x81 -1 x1 <= +0
 c103: +1 x82 -1 x2 <= +0
 c104: +1 x83 -1 x3 <= +0
 c105: +1 x84 -1 x4 <= +0
 c106: +1 x85 -1 x5 <= +0
 c107: +1 x86 -1 x6 <= +0
 c108: +1 x87 -1 x7 <= +0
 c109: +1 x88 -1 x8 <= +0
 c110: +1 x89 -1 x9 <= +0
 c111: +1 x90 -1 x0 <= +0
 c112: +1 x91 -1 x1 <= +0
 c113: +1 x92 -1 x2 <= +0
 c114: +1 x93 -1 x3 <= +0
 c115: +1 x94 -1 x4 <= +0
 c116: +1 x95 -1 x5 <= +0
 c117: +1 x96 -1 x6 <= +0
 c118: +1 x97 -1 x7 <= +0
 c119: +1 x98 -1 x8 <= +0
 c120: +1 x99 -1 x9 <= +0
 c121: +1 x100 -1 x0 <= +0
 c122: +1 x101 -1 x1 <= +0
 c123: +1 x102 -1 x2 <= +0
 c124: +1 x103 -1 x3 <= +0
 c125: +1 x104 -1 x4 <= +0
 c126: +1 x105 -1 x5 <= +0
 c127: +1 x106 -1 x6 <= +0
 c128: +1 x107 -1 x7 <= +0
 c129: +1 x108 -1 x8 <= +0
 c130: +1 x109 -1 x9 <= +0
 c131: +1 x110 -1 x0 <= +0
 c132: +1 x111 -1 x1 <= +0
 c133: +1 x112 -1 x2 <= +0
 c134: +1 x113 -1 x3 <= +0
 c135: +1 x114 -1 x4 <= +0
 c136: +1 x115 -1 x5 <= +0
 c137: +1 x116 -1 x6 <= +0
 c138: +1 x117 -1 x7 <= +0
 c139: +1 x118 -1 x8 <= +0
 c140: +1 x119 -1 x9 <= +0
 c141: +1 x120 -1 x0 <= +0
 c142: +1 x121 -1 x1 <= +0
 c143: +1 x122 -1 x2 <= +0
 c144: +1 x123 -1 x3 <= +0
 c145: +1 x124 -1 x4 <= +0
 c146: +1 x125 -1 x5 <= +0
 c147: +1 x126 -1 x6 <= +0
 c148: +1 x127 -1 x7 <= +0
 c149: +1 x128 -1 x8 <= +0
 c150: +1 x129 -1 x9 <= +0
 c151: +1 x130 -1 x0 <= +0
 c152: +1 x131 -1 x1 <= +0
 c153: +1 x132 -1 x2 <= +0
 c154: +1 x133 -1 x3 <= +0
 c155: +1 x134 -1 x4 <= +0
 c156: +1 x135 -1 x5 <= +0
 c157: +1 x136 -1 x6 <= +0
 c158: +1 x137 -1 x7 <= +0
 c159: +1 x138 -1 x8 <= +0
 c160: +1 x139 -1 x9 <= +0
 c161: +1 x140 -1 x0 <= +0
 c162: +1 x141 -1 x1 <= +0
 c163: +1 x142 -1 x2 <= +0
 c164: +1 x143 -1 x3 <= +0
 c165: +1 x144 -1 x4 <= +0
 c166: +1 x145 -1 x5 <= +0
 c167: +1 x146 -1 x6 <= +0
 c168: +1 x147 -1 x7 <= +0
 c169: +1 x148 -1 x8 <= +0
 c170: +1 x149 -1 x9 <= +0
 c171: +1 x150 -1 x0 <= +0
 c172: +1 x151 -1 x1 <= +0
 c173: +1 x152 -1 x2 <= +0
 c174: +1 x153 -1 x3 <= +0
 c175: +1 x154 -1 x4 <= +0
 c176: +1 x155 -1 x5 <= +0
 c177: +1 x156 -1 x6 <= +0
 c178: +1 x157 -1 x7 <= +0
 c179: +1 x158 -1 x8 <= +0
 c180: +1 x159 -1 x9 <= +0
 c181: +1 x160 -1 x0 <= +0
 c182: +1 x161 -1 x1 <= +0
 c183: +1 x162 -1 x2 <= +0
 c184: +1 x163 -1 x3 <= +0
 c185: +1 x164 -1 x4 <= +0
 c186: +1 x165 -1 x5 <= +0
 c187: +1 x166 -1 x6 <= +0
 c188: +1 x167 -1 x7 <= +0
 c189: +1 x168 -1 x8 <= +0
 c190: +1 x169 -1 x9 <= +0
 c191: +1 x170 -1 x0 <= +0
 c192: +1 x171 -1 x1 <= +0
 c193: +1 x172 -1 x2 <= +0
 c194: +1 x173 -1 x3 <= +0
 c195: +1 x174 -1 x4 <= +0
 c196: +1 x175 -1 x5 <= +0
 c197: +1 x176 -1 x6 <= +0
 c198: +1 x177 -1 x7 <= +0
 c199: +1 x178 -1 x8 <= +0
 c200: +1 x179 -1 x9 <= +0
 c201: +1 x180 -1 x0 <= +0
 c202: +1 x181 -1 x1 <= +0
 c203: +1 x182 -1 x2 <= +0
 c204: +1 x183 -1 x3 <= +0
 c205: +1 x184 -1 x4 <= +0
 c206: +1 x185 -1 x5 <= +0
 c207: +1 x186 -1 x6 <= +0
 c208: +1 x187 -1 x7 <= +0
 c209: +1 x188 -1 x8 <= +0
 c210: +1 x189 -1 x9 <= +0
 c211: +1 x190 -1 x0 <= +0
 c212: +1 x191 -1 x1 <= +0
 c213: +1 x192 -1 x2 <= +0
 c214: +1 x193 -1 x3 <= +0
 c215: +1 x194 -1 x4 <= +0
 c216: +1 x195 -1 x5 <= +0
 c217: +1 x196 -1 x6 <= +0
 c218: +1 x197 -1 x7 <= +0
 c219: +1 x198 -1 x8 <= +0
 c220: +1 x199 -1 x9 <= +0
 c221: +1 x200 -1 x0 <= +0
 c222: +1 x201 -1 x1 <= +0
 c223: +1 x202 -1 x2 <= +0
 c224: +1 x203 -1 x3 <= +0
 c225: +1 x204 -1 x4 <= +0
 c226: +1 x205 -1 x5 <= +0
 c227: +1 x206 -1 x6 <= +0
 c228: +1 x207 -1 x7 <= +0
 c229: +1 x208 -1 x8 <= +0
 c230: +1 x209 -1 x9 <= +0
Bounds
 0 <= x0 <= 1
 0 <= x1 <= 1
 0 <= x2 <= 1
 0 <= x3 <= 1
 0 <= x4 <= 1
 0 <= x5 <= 1
 0 <= x6 <= 1
 0 <= x7 <= 1
 0 <= x8 <= 1
 0 <= x9 <= 1
 0 <= x10 <= 1
 0 <= x11 <= 1
 0 <= x12 <= 1
 0 <= x13 <= 1
 0 <= x14 <= 1
 0 <= x15 <= 1
 0 <= x16 <= 1
 0 <= x17 <= 1
 0 <= x18 <= 1
 0 <= x19 <= 1
 0 <= x20 <= 1
 0 <= x21 <= 1
 0 <= x22 <= 1
 0 <= x23 <= 1
 0 <= x24 <= 1
 0 <= x25 <= 1
 0 <= x26 <= 1
 0 <= x27 <= 1
 0 <= x28 <= 1
 0 <= x29 <= 1
 0 <= x30 <= 1
 0 <= x31 <= 1
 0 <= x32 <= 1
 0 <= x33 <= 1
 0 <= x34 <= 1
 0 <= x35 <= 1
 0 <= x36 <= 1
 0 <= x37 <= 1
 0 <= x38 <= 1
 0 <= x39 <= 1
 0 <= x40 <= 1
 0 <= x41 <= 1
 0 <= x42 <= 1
 0 <= x43 <= 1
 0 <= x44 <= 1
 0 <= x45 <= 1
 0 <= x46 <= 1
 0 <= x47 <= 1
 0 <= x48 <= 1
 0 <= x49 <= 1
 0 <= x50 <= 1
 0 <= x51 <= 1
 0 <= x52 <= 1
 0 <= x53 <= 1
 0 <= x54 <= 1
 0 <= x55 <= 1
 0 <= x56 <= 1
 0 <= x57 <= 1
 0 <= x58 <= 1
 0 <= x59 <= 1
 0 <= x60 <= 1
 0 <= x61 <= 1
 0 <= x62 <= 1
 0 <= x63 <= 1
 0 <= x64 <= 1
 0 <= x65 <= 1
 0 <= x66 <= 1
 0 <= x67 <= 1
 0 <= x68 <= 1
 0 <= x69 <= 1
 0 <= x70 <= 1
 0 <= x71 <= 1
 0 <= x72 <= 1
 0 <= x73 <= 1
 0 <= x74 <= 1
 0 <= x75 <= 1
 0 <= x76 <= 1
 0 <= x77 <= 1
 0 <= x78 <= 1
 0 <= x79 <= 1
 0 <= x80 <= 1
 0 <= x81 <= 1
 0 <= x82 <= 1
 0 <= x83 <= 1
 0 <= x84 <= 1
 0 <= x85 <= 1
 0 <= x86 <= 1
 0 <= x87 <= 1
 0 <= x88 <= 1
 0 <= x89 <= 1
 0 <= x90 <= 1
 0 <= x91 <= 1
 0 <= x92 <= 1
 0 <= x93 <= 1
 0 <= x94 <= 1
 0 <= x95 <= 1
 0 <= x96 <= 1
 0 <= x97 <= 1
 0 <= x98 <= 1
 0 <= x99 <= 1
 0 <= x100 <= 1
 0 <= x101 <= 1
 0 <= x102 <= 1
 0 <= x103 <= 1
 0 <= x104 <= 1
 0 <= x105 <= 1
 0 <= x106 <= 1
 0 <= x107 <= 1
 0 <= x108 <= 1
 0 <= x109 <= 1
 0 <= x110 <= 1
 0 <= x111 <= 1
 0 <= x112 <= 1
 0 <= x113 <= 1
 0 <= x114 <= 1
 0 <= x115 <= 1
 0 <= x116 <= 1
 0 <= x117 <= 1
 0 <= x118 <= 1
 0 <= x119 <= 1
 0 <= x120 <= 1
 0 <= x121 <= 1
 0 <= x122 <= 1
 0 <= x123 <= 1
 0 <= x124 <= 1
 0 <= x125 <= 1
 0 <= x126 <= 1
 0 <= x127 <= 1
 0 <= x128 <= 1
 0 <= x129 <= 1
 0 <= x130 <= 1
 0 <= x131 <= 1
 0 <= x132 <= 1
 0 <= x133 <= 1
 0 <= x134 <= 1
 0 <= x135 <= 1
 0 <= x136 <= 1
 0 <= x137 <= 1
 0 <= x138 <= 1
 0 <= x139 <= 1
 0 <= x140 <= 1
 0 <= x141 <= 1
 0 <= x142 <= 1
 0 <= x143 <= 1
 0 <= x144 <= 1
 0 <= x145 <= 1
 0 <= x146 <= 1
 0 <= x147 <= 1
 0 <= x148 <= 1
 0 <= x149 <= 1
 0 <= x150 <= 1
 0 <= x151 <= 1
 0 <= x152 <= 1
 0 <= x153 <= 1
 0 <= x154 <= 1
 0 <= x155 <= 1
 0 <= x156 <= 1
 0 <= x157 <= 1
 0 <= x158 <= 1
 0 <= x159 <= 1
 0 <= x160 <= 1
 0 <= x161 <= 1
 0 <= x162 <= 1
 0 <= x163 <= 1
 0 <= x164 <= 1
 0 <= x165 <= 1
 0 <= x166 <= 1
 0 <= x167 <= 1
 0 <= x168 <= 1
 0 <= x169 <= 1
 0 <= x170 <= 1
 0 <= x171 <= 1
 0 <= x172 <= 1
 0 <= x173 <= 1
 0 <= x174 <= 1
 0 <= x175 <= 1
 0 <= x176 <= 1
 0 <= x177 <= 1
 0 <= x178 <= 1
 0 <= x179 <= 1
 0 <= x180 <= 1
 0 <= x181 <= 1
 0 <= x182 <= 1
 0 <= x183 <= 1
 0 <= x184 <= 1
 0 <= x185 <= 1
 0 <= x186 <= 1
 0 <= x187 <= 1
 0 <= x188 <= 1
 0 <= x189 <= 1
 0 <= x190 <= 1
 0 <= x191 <= 1
 0 <= x192 <= 1
 0 <= x193 <= 1
 0 <= x194 <= 1
 0 <= x195 <= 1
 0 <= x196 <= 1
 0 <= x197 <= 1
 0 <= x198 <= 1
 0 <= x199 <= 1
 0 <= x200 <= 1
 0 <= x201 <= 1
 0 <= x202 <= 1
 0 <= x203 <= 1
 0 <= x204 <= 1
 0 <= x205 <= 1
 0 <= x206 <= 1
 0 <= x207 <= 1
 0 <= x208 <= 1
 0 <= x209 <= 1
Binaries
 x0 x1 x2 x3 x4 x5 x6 x7 x8 x9 x10 x11 x12 x13 x14 x15 x16 x17 x18 x19 x20 x21 x22 x23 x24 x25 x26 x27
 x28 x29 x30 x31 x32 x33 x34 x35 x36 x37 x38 x39 x40 x41 x42 x43 x44 x45 x46 x47 x48 x49 x50 x51 x52 x53
 x54 x55 x56 x57 x58 x59 x60 x61 x62 x63 x64 x65 x66 x67 x68 x69 x70 x71 x72 x73 x74 x75 x76 x77 x78 x79
 x80 x81 x82 x83 x84 x85 x86 x87 x88 x89 x90 x91 x92 x93 x94 x95 x96 x97 x98 x99 x100 x101 x102 x103 x104
 x105 x106 x107 x108 x109 x110 x111 x112 x113 x114 x115 x116 x117 x118 x119 x120 x121 x122 x123 x124 x125
 x126 x127 x128 x129 x130 x131 x132 x133 x134 x135 x136 x137 x138 x139 x140 x141 x142 x143 x144 x145 x146
 x147 x148 x149 x150 x151 x152 x153 x154 x155 x156 x157 x158 x159 x160 x161 x162 x163 x164 x165 x166 x167
 x168 x169 x170 x171 x172 x173 x174 x175 x176 x177 x178 x179 x180 x181 x182 x183 x184 x185 x186 x187 x188
 x189 x190 x191 x192 x193 x194 x195 x196 x197 x198 x199 x200 x201 x202 x203 x204 x205 x206 x207 x208 x209
End
